max: Z;
p_0= 0;
p_1= 0;
p_2= 0;
p_3= 0;
p_4= 0;
p_5= 0;
p_6= 0;
p_7 >= 0;
p_8= 0;
p_9= 0;
p_10= 0;
p_11= 0;
p_12= 0;
p_13= 0;
p_14= 0;
p_15= 0;
p_16= 0;
p_17= 0;
p_18= 0;
p_19 >= 0;
p_20= 0;
p_21= 0;
p_22= 0;
p_23= 0;
p_24= 0;
p_25= 0;
p_26= 0;
p_27= 0;
p_28= 0;
p_29= 0;
p_30= 0;
p_31 >= 0;
p_32= 0;
p_33= 0;
p_34= 0;
p_35= 0;
p_36= 0;
p_37= 0;
p_38= 0;
p_39= 0;
p_40= 0;
p_41= 0;
p_42= 0;
p_43 >= 0;
p_44= 0;
p_45= 0;
p_46= 0;
p_47= 0;
p_48= 0;
p_49= 0;
p_50= 0;
p_51= 0;
p_52= 0;
p_53= 0;
p_54= 0;
p_55= 0;
p_56= 0;
p_57= 0;
p_58= 0;
p_59= 0;
p_60= 0;
p_61= 0;
p_62= 0;
p_63= 0;
p_64= 0;
p_65= 0;
p_66= 0;
p_67= 0;
p_68= 0;
p_69= 0;
p_70= 0;
p_71= 0;
p_72= 0;
p_73= 0;
p_74= 0;
p_75= 0;
p_76= 0;
p_77= 0;
p_78= 0;
p_79= 0;
p_80= 0;
p_81= 0;
p_82= 0;
p_83= 0;
p_84= 0;
p_85= 0;
p_86= 0;
p_87= 0;
p_88= 0;
p_89= 0;
p_90= 0;
p_91= 0;
p_92= 0;
p_93= 0;
p_94= 0;
p_95= 0;
p_96= 0;
p_97= 0;
p_98= 0;
p_99= 0;
p_100= 0;
p_101= 0;
p_102= 0;
p_103= 0;
p_104= 0;
p_105= 0;
p_106= 0;
p_107= 0;
p_108= 0;
p_109= 0;
p_110= 0;
p_111= 0;
p_112= 0;
p_113= 0;
p_114= 0;
p_115= 0;
p_116= 0;
p_117= 0;
p_118= 0;
p_119= 0;
p_120= 0;
p_121= 0;
p_122= 0;
p_123= 0;
p_124 >= 0;
p_125= 0;
p_126= 0;
p_127= 0;
p_128= 0;
p_129= 0;
p_130= 0;
p_131= 0;
p_7 <= 1.0;
p_19 <= 1.0;
p_31 <= 1.0;
p_43 <= 1.0;
p_124 <= 1.0;
p_7 + p_19 + p_31 + p_43 <= 1.0;
p_124 <= 1.0;
p_7 <= 1.0;
p_19 <= 1.0;
p_31 <= 1.0;
p_43 <= 1.0;
p_124 <= 1.0;
p_7 - Z >= 0;
p_19 - Z >= 0;
p_31 - Z >= 0;
p_43 - Z >= 0;
p_124 - Z >= 0;
